40
1 0 42
2 0 4
2 1 36
3 0 87
3 1 99
3 2 9
4 0 6
4 1 46
4 2 63
4 3 9
5 0 3
5 1 25
5 2 86
5 3 72
5 4 37
6 0 5
6 1 72
6 2 51
6 3 28
6 4 61
6 5 18
7 0 68
7 1 81
7 2 80
7 3 94
7 4 92
7 5 1
7 6 28
8 0 62
8 1 20
8 2 11
8 3 55
8 4 29
8 5 99
8 6 24
8 7 21
9 0 72
9 1 52
9 2 89
9 3 96
9 4 99
9 5 1
9 6 7
9 7 61
9 8 12
10 0 1
10 1 77
10 2 11
10 3 8
10 4 23
10 5 48
10 6 32
10 7 19
10 8 51
10 9 48
11 0 15
11 1 73
11 2 83
11 3 46
11 4 24
11 5 57
11 6 49
11 7 57
11 8 21
11 9 69
11 10 85
12 0 90
12 1 37
12 2 23
12 3 34
12 4 14
12 5 18
12 6 43
12 7 54
12 8 78
12 9 1
12 10 33
12 11 52
13 0 16
13 1 90
13 2 46
13 3 84
13 4 20
13 5 48
13 6 59
13 7 84
13 8 75
13 9 15
13 10 37
13 11 15
13 12 65
14 0 10
14 1 56
14 2 51
14 3 14
14 4 6
14 5 94
14 6 30
14 7 15
14 8 61
14 9 29
14 10 50
14 11 58
14 12 38
14 13 100
15 0 85
15 1 65
15 2 83
15 3 1
15 4 51
15 5 84
15 6 5
15 7 48
15 8 43
15 9 20
15 10 92
15 11 13
15 12 29
15 13 75
15 14 70
16 0 11
16 1 63
16 2 51
16 3 67
16 4 20
16 5 65
16 6 29
16 7 49
16 8 24
16 9 76
16 10 23
16 11 48
16 12 37
16 13 71
16 14 78
16 15 82
17 0 46
17 1 18
17 2 57
17 3 47
17 4 67
17 5 88
17 6 50
17 7 38
17 8 26
17 9 63
17 10 70
17 11 11
17 12 78
17 13 9
17 14 51
17 15 10
17 16 49
18 0 96
18 1 47
18 2 6
18 3 68
18 4 79
18 5 92
18 6 41
18 7 91
18 8 95
18 9 91
18 10 55
18 11 78
18 12 13
18 13 24
18 14 45
18 15 43
18 16 56
18 17 6
19 0 94
19 1 95
19 2 89
19 3 27
19 4 54
19 5 56
19 6 19
19 7 58
19 8 84
19 9 97
19 10 71
19 11 8
19 12 61
19 13 51
19 14 38
19 15 64
19 16 36
19 17 88
19 18 97
20 0 48
20 1 88
20 2 47
20 3 60
20 4 67
20 5 98
20 6 83
20 7 97
20 8 59
20 9 54
20 10 56
20 11 41
20 12 36
20 13 54
20 14 78
20 15 80
20 16 96
20 17 70
20 18 97
20 19 71
21 0 47
21 1 83
21 2 69
21 3 54
21 4 68
21 5 19
21 6 76
21 7 40
21 8 96
21 9 26
21 10 57
21 11 6
21 12 13
21 13 81
21 14 85
21 15 8
21 16 88
21 17 23
21 18 99
21 19 17
21 20 71
22 0 39
22 1 67
22 2 21
22 3 64
22 4 55
22 5 54
22 6 49
22 7 15
22 8 16
22 9 3
22 10 28
22 11 99
22 12 44
22 13 69
22 14 50
22 15 89
22 16 11
22 17 57
22 18 42
22 19 34
22 20 75
22 21 53
23 0 38
23 1 94
23 2 60
23 3 50
23 4 10
23 5 91
23 6 71
23 7 5
23 8 9
23 9 90
23 10 90
23 11 92
23 12 18
23 13 12
23 14 81
23 15 22
23 16 17
23 17 41
23 18 5
23 19 42
23 20 9
23 21 83
23 22 28
24 0 58
24 1 76
24 2 77
24 3 61
24 4 21
24 5 37
24 6 86
24 7 75
24 8 73
24 9 41
24 10 100
24 11 77
24 12 59
24 13 28
24 14 32
24 15 42
24 16 26
24 17 11
24 18 2
24 19 32
24 20 95
24 21 90
24 22 23
24 23 46
25 0 54
25 1 98
25 2 39
25 3 97
25 4 7
25 5 15
25 6 94
25 7 91
25 8 4
25 9 34
25 10 4
25 11 57
25 12 100
25 13 39
25 14 86
25 15 75
25 16 48
25 17 42
25 18 58
25 19 65
25 20 14
25 21 91
25 22 100
25 23 62
25 24 51
26 0 31
26 1 69
26 2 83
26 3 5
26 4 99
26 5 79
26 6 56
26 7 17
26 8 70
26 9 4
26 10 65
26 11 39
26 12 92
26 13 69
26 14 45
26 15 94
26 16 81
26 17 22
26 18 18
26 19 48
26 20 50
26 21 15
26 22 52
26 23 58
26 24 9
26 25 31
27 0 3
27 1 19
27 2 52
27 3 34
27 4 46
27 5 46
27 6 14
27 7 39
27 8 26
27 9 33
27 10 76
27 11 14
27 12 71
27 13 85
27 14 38
27 15 70
27 16 59
27 17 33
27 18 95
27 19 3
27 20 27
27 21 54
27 22 91
27 23 82
27 24 53
27 25 60
27 26 23
28 0 17
28 1 70
28 2 46
28 3 24
28 4 33
28 5 79
28 6 94
28 7 61
28 8 37
28 9 69
28 10 72
28 11 7
28 12 65
28 13 68
28 14 82
28 15 88
28 16 32
28 17 78
28 18 52
28 19 98
28 20 33
28 21 74
28 22 64
28 23 55
28 24 61
28 25 64
28 26 58
28 27 24
29 0 43
29 1 35
29 2 81
29 3 28
29 4 8
29 5 51
29 6 40
29 7 42
29 8 42
29 9 60
29 10 93
29 11 23
29 12 93
29 13 26
29 14 98
29 15 23
29 16 21
29 17 11
29 18 70
29 19 99
29 20 21
29 21 50
29 22 54
29 23 8
29 24 61
29 25 13
29 26 93
29 27 46
29 28 100
30 0 36
30 1 51
30 2 88
30 3 95
30 4 62
30 5 27
30 6 17
30 7 100
30 8 39
30 9 60
30 10 61
30 11 20
30 12 54
30 13 18
30 14 69
30 15 82
30 16 1
30 17 21
30 18 7
30 19 15
30 20 15
30 21 42
30 22 43
30 23 68
30 24 16
30 25 77
30 26 46
30 27 10
30 28 56
30 29 89
31 0 48
31 1 78
31 2 47
31 3 57
31 4 7
31 5 70
31 6 23
31 7 100
31 8 94
31 9 11
31 10 63
31 11 40
31 12 84
31 13 25
31 14 77
31 15 32
31 16 21
31 17 96
31 18 32
31 19 75
31 20 4
31 21 6
31 22 65
31 23 83
31 24 82
31 25 75
31 26 25
31 27 81
31 28 83
31 29 43
31 30 21
32 0 43
32 1 14
32 2 72
32 3 85
32 4 2
32 5 88
32 6 60
32 7 64
32 8 1
32 9 73
32 10 83
32 11 7
32 12 43
32 13 88
32 14 27
32 15 19
32 16 81
32 17 57
32 18 53
32 19 74
32 20 54
32 21 22
32 22 22
32 23 35
32 24 40
32 25 77
32 26 79
32 27 10
32 28 9
32 29 43
32 30 45
32 31 36
33 0 83
33 1 37
33 2 98
33 3 91
33 4 26
33 5 81
33 6 29
33 7 54
33 8 47
33 9 53
33 10 98
33 11 72
33 12 71
33 13 88
33 14 25
33 15 8
33 16 4
33 17 73
33 18 15
33 19 70
33 20 21
33 21 99
33 22 72
33 23 56
33 24 30
33 25 52
33 26 60
33 27 57
33 28 5
33 29 73
33 30 33
33 31 97
33 32 89
34 0 13
34 1 18
34 2 23
34 3 96
34 4 53
34 5 35
34 6 52
34 7 88
34 8 74
34 9 90
34 10 44
34 11 89
34 12 2
34 13 65
34 14 78
34 15 53
34 16 57
34 17 3
34 18 10
34 19 30
34 20 67
34 21 62
34 22 78
34 23 63
34 24 57
34 25 61
34 26 67
34 27 30
34 28 4
34 29 80
34 30 41
34 31 10
34 32 8
34 33 63
35 0 23
35 1 27
35 2 44
35 3 39
35 4 67
35 5 21
35 6 89
35 7 65
35 8 58
35 9 33
35 10 20
35 11 47
35 12 32
35 13 4
35 14 45
35 15 12
35 16 4
35 17 35
35 18 20
35 19 13
35 20 40
35 21 54
35 22 40
35 23 5
35 24 27
35 25 78
35 26 23
35 27 24
35 28 6
35 29 81
35 30 23
35 31 46
35 32 82
35 33 95
35 34 43
36 0 25
36 1 31
36 2 7
36 3 29
36 4 16
36 5 65
36 6 32
36 7 63
36 8 52
36 9 11
36 10 76
36 11 94
36 12 26
36 13 40
36 14 11
36 15 79
36 16 75
36 17 32
36 18 36
36 19 6
36 20 8
36 21 68
36 22 88
36 23 31
36 24 88
36 25 100
36 26 34
36 27 61
36 28 78
36 29 4
36 30 52
36 31 44
36 32 12
36 33 61
36 34 83
36 35 66
37 0 35
37 1 95
37 2 19
37 3 55
37 4 49
37 5 57
37 6 45
37 7 45
37 8 34
37 9 56
37 10 67
37 11 56
37 12 43
37 13 62
37 14 81
37 15 85
37 16 93
37 17 38
37 18 66
37 19 15
37 20 93
37 21 64
37 22 17
37 23 90
37 24 82
37 25 75
37 26 42
37 27 18
37 28 74
37 29 24
37 30 83
37 31 80
37 32 34
37 33 28
37 34 47
37 35 87
37 36 15
38 0 78
38 1 61
38 2 86
38 3 48
38 4 1
38 5 63
38 6 20
38 7 72
38 8 23
38 9 13
38 10 99
38 11 12
38 12 62
38 13 95
38 14 10
38 15 74
38 16 41
38 17 11
38 18 14
38 19 9
38 20 26
38 21 18
38 22 75
38 23 53
38 24 2
38 25 49
38 26 26
38 27 55
38 28 53
38 29 10
38 30 79
38 31 46
38 32 15
38 33 63
38 34 23
38 35 16
38 36 5
38 37 22
39 0 66
39 1 94
39 2 57
39 3 23
39 4 25
39 5 55
39 6 11
39 7 53
39 8 65
39 9 97
39 10 39
39 11 42
39 12 30
39 13 58
39 14 100
39 15 57
39 16 33
39 17 74
39 18 63
39 19 51
39 20 97
39 21 91
39 22 39
39 23 49
39 24 53
39 25 81
39 26 10
39 27 93
39 28 41
39 29 38
39 30 40
39 31 51
39 32 75
39 33 32
39 34 18
39 35 86
39 36 66
39 37 69
39 38 67
